============================[ Problem Statistics ]=============================|                                                                             ||  Number of variables:          4242                                         ||  Number of clauses:           10389                                         ||  Parse time:                   0.77 s                                       ||                                                                             |============================[ Search Statistics ]==============================| Conflicts |          ORIGINAL         |          LEARNT          | Progress ||           |    Vars  Clauses Literals |    Limit  Clauses Lit/Cl |          |===============================================================================|       100 |    1591     6594  1238455 |     2417      100     53 | 62.501 % ||       250 |    1591     6594  1238455 |     2659      250     75 | 62.495 % |===============================================================================restarts              : 4conflicts             : 419            (361 /sec)decisions             : 779            (0.00 % random) (672 /sec)propagations          : 13683          (11796 /sec)conflict literals     : 35063          (94.51 % deleted)CPU time              : 1.16 sSATISFIABLE